100 8
144 165
458 359
235 885
655 345
793 390
157 761
155 758
673 91
132 242
671 594
578 716
551 106
560 259
459 865
659 477
88 223
663 530
603 433
539 321
501 348
104 890
788 477
534 861
241 725
567 335
217 807
217 276
303 217
550 728
26 704
750 715
487 340
710 520
210 290
67 147
626 127
584 887
124 684
686 711
194 237
713 201
232 245
755 795
185 720
414 140
314 879
179 903
194 361
644 336
360 464
757 709
541 324
556 337
707 208
635 493
108 674
536 119
761 372
719 437
878 283
549 417
497 644
508 490
615 181
454 697
110 182
194 687
751 553
64 673
402 825
421 820
132 660
391 615
173 919
554 709
350 219
909 458
484 325
432 789
544 858
584 272
552 789
227 203
164 133
132 763
138 257
253 195
373 742
430 316
408 263
329 269
738 729
76 785
330 719
129 276
387 691
867 461
205 730
278 310
410 624
